min: t;
n =4;
td01 = 1; 
td02 = 1; 
td03 = 1; 
td10 = 5; 
td12 = 2; 
td13 = 5; 
td20 = 6; 
td21 = 3; 
td23 = 2; 
td30 = 5; 
td31 = 4; 
td32 = 3; 
a0=2;
a1=3;
a2=6;
a3=1;
b0=0;
b1=5;
b2=13;
b3=8;
ts0=0;
ts1=22;
ts2=22;
ts3=22;
h40 + x01 + x02 + x03 = 1;
x10 + x12 + x13 = 1;
x20 + x21 + x23 = 1;
x30 + x31 + x32 = 1;
0 + x10 + x20 + x30 = 1;
x01 + x21 + x31 = 1;
x02 + x12 + x32 = 1;
x03 + x13 + x23 = 1;
u1 - u0 + 4 x10 <= n-1;
u1 - u2 + 4 x12 <= n-1;
u1 - u3 + 4 x13 <= n-1;
u2 - u0 + 4 x20 <= n-1;
u2 - u1 + 4 x21 <= n-1;
u2 - u3 + 4 x23 <= n-1;
u3 - u0 + 4 x30 <= n-1;
u3 - u1 + 4 x31 <= n-1;
u3 - u2 + 4 x32 <= n-1;
h0 <= b0;
h1 <= b1;
h2 <= b2;
h3 <= b3;
h1 - h0 + 100000 - 100000 x01 >= td01 + ts0 + p0;
h2 - h0 + 100000 - 100000 x02 >= td02 + ts0 + p0;
h3 - h0 + 100000 - 100000 x03 >= td03 + ts0 + p0;
h4 - h1 + 100000 - 100000 x10 >= td10 + ts1 + p1;
h2 - h1 + 100000 - 100000 x12 >= td12 + ts1 + p1;
h3 - h1 + 100000 - 100000 x13 >= td13 + ts1 + p1;
h4 - h2 + 100000 - 100000 x20 >= td20 + ts2 + p2;
h1 - h2 + 100000 - 100000 x21 >= td21 + ts2 + p2;
h3 - h2 + 100000 - 100000 x23 >= td23 + ts2 + p2;
h4 - h3 + 100000 - 100000 x30 >= td30 + ts3 + p3;
h1 - h3 + 100000 - 100000 x31 >= td31 + ts3 + p3;
h2 - h3 + 100000 - 100000 x32 >= td32 + ts3 + p3;
p1 = a1 - h1 + s1;
p2 = a2 - h2 + s2;
p3 = a3 - h3 + s3;
p0 = 0;
p1 >= 0;
p2 >= 0;
p3 >= 0;
